5	4
3	3	1	16	2	18	3	18	3	2	32	3	28	4	34	3	4	24	1	26	2	20
3	3	1	40	3	36	2	42	3	3	20	1	26	4	16	3	2	36	4	34	3	38
3	3	3	24	4	22	1	22	3	4	16	2	20	3	14	3	1	30	3	28	2	34
2	3	4	28	1	32	3	32	3	2	36	3	32	1	32
2	3	3	20	2	18	4	22	3	1	30	4	32	3	28
0	2	4	5	7
9	0	2	3	5
10	7	0	4	3
6	4	3	0	3
7	7	6	3	0
